
Gurobi 9.5.0 (win64) logging started Tue Jun  7 14:33:53 2022

Set parameter LogFile to value "C:\Users\kmajd1\Documents\NNRepLayer_v2\demos\examples\tc7_walking_example\repair_inp_out_constraint\repair_net/logs/opt_log_6_7_2022_14_33_27.log"
Gurobi Optimizer version 9.5.0 build v9.5.0rc5 (win64)
Thread count: 8 physical cores, 16 logical processors, using up to 16 threads
Optimize a model with 366 rows, 134 columns and 945 nonzeros
Model fingerprint: 0x0f97789e
Model has 101 quadratic objective terms
Coefficient statistics:
  Matrix range     [1e-02, 3e+01]
  Objective range  [2e-03, 4e-01]
  QObjective range [2e-02, 2e+00]
  Bounds range     [1e+01, 4e+01]
  RHS range        [1e-03, 2e+01]
Presolve removed 233 rows and 18 columns
Presolve time: 0.01s
Presolved: 133 rows, 116 columns, 692 nonzeros
Presolved model has 101 quadratic objective terms
Ordering time: 0.00s

Barrier statistics:
 Dense cols : 9
 AA' NZ     : 8.170e+02
 Factor NZ  : 1.295e+03
 Factor Ops : 1.747e+04 (less than 1 second per iteration)
 Threads    : 1

                  Objective                Residual
Iter       Primal          Dual         Primal    Dual     Compl     Time
   0   1.62449199e+07 -1.63670409e+07  3.38e+03 4.29e+02  9.13e+05     0s
   1   5.19172722e+06 -5.42746005e+06  1.82e+03 2.30e+02  4.99e+05     0s
   2   3.48774399e+04 -7.27541250e+05  1.57e+02 1.99e+01  5.94e+04     0s
   3   1.36581702e+01 -4.56630794e+05  1.71e+00 2.17e-01  2.28e+03     0s
   4   1.00639741e+01 -1.75125203e+05  4.22e-01 5.35e-02  7.45e+02     0s
   5   1.04034295e+01 -1.90799866e+04  1.70e-02 2.16e-03  7.19e+01     0s
   6   1.03753572e+01 -6.49343521e+01  5.20e-05 6.60e-06  2.81e-01     0s
   7   6.97563168e+00 -1.34973970e+01  6.58e-06 8.35e-07  7.64e-02     0s
   8   5.44258808e+00 -2.27037786e+00  1.63e-06 2.06e-07  2.88e-02     0s
   9   4.57778264e+00  2.53923520e+00  3.74e-07 4.74e-08  7.61e-03     0s
  10   4.44728989e+00  3.72074228e+00  9.70e-08 1.23e-08  2.71e-03     0s
  11   4.41769208e+00  4.14428200e+00  2.18e-08 2.76e-09  1.02e-03     0s
  12   4.39775353e+00  4.34371426e+00  1.66e-09 2.11e-10  2.02e-04     0s
  13   4.39386780e+00  4.39319599e+00  2.51e-12 3.12e-13  2.51e-06     0s
  14   4.39375992e+00  4.39375551e+00  7.64e-12 1.26e-12  1.65e-08     0s
  15   4.39375800e+00  4.39375793e+00  1.30e-09 1.89e-11  2.80e-10     0s

Barrier solved model in 15 iterations and 0.03 seconds (0.00 work units)
Optimal objective 4.39375800e+00

